# Generated by ConicBenchmarkUtilities.jl
VER
2

OBJSENSE
MIN

VAR
46 1
F 46

INT
5
5
6
7
8
9

CON
120 114
L= 1
L= 1
L= 1
L= 1
L= 1
EXP 3
L+ 1
L+ 1
L= 1
L= 1
L= 1
L= 1
L+ 1
L+ 1
L+ 1
L+ 1
EXP 3
L+ 1
L+ 1
L= 1
L= 1
L= 1
L= 1
L+ 1
L+ 1
L+ 1
L+ 1
L= 1
L= 1
L= 1
L= 1
L= 1
L+ 1
L+ 1
L+ 1
L+ 1
EXP 3
L+ 1
L+ 1
L= 1
L= 1
L= 1
L= 1
L+ 1
L+ 1
L+ 1
L+ 1
L= 1
L= 1
L= 1
L= 1
L= 1
L= 1
L= 1
L= 1
L+ 1
L+ 1
L+ 1
L+ 1
L+ 1
L+ 1
L= 1
L+ 1
L+ 1
L+ 1
L+ 1
L+ 1
L+ 1
L+ 1
L+ 1
L+ 1
L+ 1
L+ 1
L+ 1
L+ 1
L+ 1
L+ 1
L+ 1
L+ 1
L+ 1
L+ 1
L+ 1
L+ 1
L+ 1
L+ 1
L+ 1
L+ 1
L+ 1
L+ 1
L+ 1
L+ 1
L+ 1
L+ 1
L+ 1
L+ 1
L+ 1
L+ 1
L+ 1
L+ 1
L+ 1
L+ 1
L+ 1
L+ 1
L+ 1
L+ 1
L+ 1
L+ 1
L+ 1
L+ 1
L+ 1
L+ 1
L+ 1
L+ 1
L+ 1

OBJACOORD
1
10 -1.0

ACOORD
202
0 0 5.0
3 0 -1.0
78 0 1.0
0 1 -2.0
59 1 1.0
83 1 1.0
84 1 -1.0
0 2 200.0
35 2 1.0
85 2 1.0
0 3 250.0
48 3 1.0
86 3 1.0
0 4 300.0
60 4 1.0
87 4 1.0
0 5 -5.0
5 5 1.0
6 5 1.0
8 5 1.0
14 5 10.0
15 5 -10.0
16 5 2.39789527279837
17 5 -2.39789527279837
67 5 1.0
68 5 1.0
69 5 1.0
70 5 1.0
110 5 1.0
111 5 -1.0
0 6 -8.0
18 6 1.0
19 6 1.0
21 6 1.0
27 6 10.0
28 6 -10.0
29 6 2.87747432735804
30 6 -2.87747432735804
67 6 1.0
68 6 1.0
69 6 1.0
70 6 1.0
112 6 1.0
113 6 -1.0
0 7 -6.0
36 7 2.87747432735804
37 7 -2.87747432735804
38 7 2.15810574551853
39 7 -2.15810574551853
68 7 -1.0
114 7 1.0
115 7 -1.0
0 8 -10.0
40 8 1.0
41 8 1.0
43 8 1.0
49 8 2.87747432735804
50 8 -2.87747432735804
51 8 2.03277599268042
52 8 -2.03277599268042
69 8 -1.0
116 8 1.0
117 8 -1.0
0 9 -6.0
61 9 2.87747432735804
62 9 -2.87747432735804
63 9 7.0
64 9 -7.0
65 9 3.5
66 9 -3.5
70 9 -1.0
118 9 1.0
119 9 -1.0
0 10 -1.0
1 11 1.0
71 11 1.0
72 11 -1.0
1 12 -1.0
12 12 1.0
73 12 1.0
1 13 -1.0
25 13 1.0
74 13 1.0
2 14 -1.0
13 14 1.0
75 14 1.0
2 15 -1.0
26 15 1.0
76 15 1.0
2 16 1.0
3 16 1.0
77 16 1.0
3 17 -1.0
4 17 1.0
79 17 1.0
4 18 -1.0
34 18 1.0
80 18 1.0
4 19 -1.0
47 19 1.0
81 19 1.0
4 20 -1.0
58 20 1.0
82 20 1.0
7 21 -1.0
9 21 -1.0
5 22 1.0
8 22 1.0
12 22 -1.0
14 22 -1.0
88 22 1.0
9 23 -1.0
13 23 -1.0
16 23 -1.0
92 23 1.0
10 24 1.0
12 24 -1.0
15 24 -1.0
89 24 1.0
11 25 1.0
13 25 -1.0
17 25 -1.0
93 25 1.0
20 26 -1.0
22 26 -1.2
18 27 1.0
21 27 1.0
25 27 -1.0
27 27 -1.0
90 27 1.0
22 28 -1.0
26 28 -1.0
29 28 -1.0
94 28 1.0
23 29 1.0
25 29 -1.0
28 29 -1.0
91 29 1.0
24 30 1.0
26 30 -1.0
30 30 -1.0
95 30 1.0
31 31 -0.75
34 31 -1.0
36 31 -1.0
96 31 1.0
31 32 1.0
35 32 -1.0
38 32 -1.0
104 32 1.0
32 33 1.0
34 33 -1.0
37 33 -1.0
97 33 1.0
33 34 1.0
35 34 -1.0
39 34 -1.0
105 34 1.0
42 35 -1.0
44 35 -1.5
40 36 1.0
43 36 1.0
47 36 -1.0
49 36 -1.0
98 36 1.0
44 37 -1.0
48 37 -1.0
51 37 -1.0
106 37 1.0
45 38 1.0
47 38 -1.0
50 38 -1.0
99 38 1.0
46 39 1.0
48 39 -1.0
52 39 -1.0
107 39 1.0
53 40 -1.0
58 40 -1.0
61 40 -1.0
100 40 1.0
53 41 1.0
54 41 1.0
60 41 -1.0
65 41 -1.0
108 41 1.0
54 42 -0.5
59 42 -1.0
63 42 -1.0
102 42 1.0
55 43 1.0
58 43 -1.0
62 43 -1.0
101 43 1.0
56 44 1.0
59 44 -1.0
64 44 -1.0
103 44 1.0
57 45 1.0
60 45 -1.0
66 45 -1.0
109 45 1.0

BCOORD
19
15 10.0
17 2.39789527279837
28 10.0
30 2.87747432735804
37 2.87747432735804
39 2.15810574551853
50 2.87747432735804
52 2.03277599268042
62 2.87747432735804
64 7.0
66 3.5
67 -1.0
72 10.0
84 7.0
111 1.0
113 1.0
115 1.0
117 1.0
119 1.0
